c Random generated cnf formula, satisfiable: false
p cnf 10 50
-1 -5 -2 0
-10 -7 -6 0
-4 -7 -2 0
3 1 -9 0
7 2 -4 0
3 -2 -7 0
7 -2 -3 0
9 8 -5 0
-4 1 -7 0
-7 6 -8 0
-2 -4 -6 0
6 10 -4 0
5 6 9 0
-9 5 -2 0
2 -7 3 0
-5 6 -10 0
8 -1 -2 0
8 -9 7 0
-10 9 8 0
-4 7 -6 0
-1 -7 -2 0
-9 -3 8 0
4 2 -6 0
-9 2 5 0
5 3 2 0
1 -5 10 0
-4 -10 -5 0
10 -6 5 0
-5 -7 2 0
-6 -4 2 0
7 10 5 0
10 -5 1 0
-9 3 10 0
-4 -8 -5 0
-7 1 10 0
-5 2 8 0
1 6 -10 0
7 6 5 0
-3 -7 -1 0
-4 -6 -1 0
9 8 -5 0
-8 3 4 0
1 -4 -5 0
-9 10 3 0
7 -3 9 0
4 -8 6 0
-2 -1 -3 0
10 -6 -2 0
5 -6 -1 0
3 -8 -6 0
